LAMMPS (7 Feb 2024 - Development - patch_7Feb2024_update1-306-gf3391199e7-modified)
  using 1 OpenMP thread(s) per MPI task
# Tethered nanorods

atom_style	molecular

read_data	data.rigid.tnr
Reading data file ...
  orthogonal box = (-31.122 -31.122 -31.122) to (31.122 31.122 31.122)
  1 by 2 by 2 MPI processor grid
  reading atoms ...
  5600 atoms
  scanning bonds ...
  1 = max bonds/atom
  reading bonds ...
  1600 bonds
Finding 1-2 1-3 1-4 neighbors ...
  special bond factors lj:    0        0        0       
  special bond factors coul:  0        0        0       
     2 = max # of 1-2 neighbors
     1 = max # of 1-3 neighbors
     1 = max # of 1-4 neighbors
     2 = max # of special neighbors
  special bonds CPU = 0.001 seconds
  read_data CPU = 0.017 seconds

# Specify bond parameters

bond_style	fene
bond_coeff	1 30.0 1.5 1.0 1.0

special_bonds	fene
Finding 1-2 1-3 1-4 neighbors ...
  special bond factors lj:    0        1        1       
  special bond factors coul:  0        1        1       
     2 = max # of 1-2 neighbors
     2 = max # of special neighbors
  special bonds CPU = 0.000 seconds

# Specify initial velocities

velocity	all create 1.4 109345

# Specify rigid components

group		rods type 2
4000 atoms in group rods
group		tethers	subtract all rods
1600 atoms in group tethers

neigh_modify 	exclude	molecule/intra rods delay 0 every 1

# Specify the pair potentials

pair_style	lj/cut	2.5
pair_modify	shift	yes
pair_coeff	* * 1.0	1.0 1.122
pair_coeff	2 2 1.0 1.0 2.5

# Specify output

thermo	100
thermo_style custom step temp pe etotal press enthalpy lx ly lz pxx pyy pzz
thermo_modify flush yes lost warn

timestep	0.005

fix	1	rods	rigid molecule
  800 rigid bodies with 4000 atoms
fix	2	tethers	nve
fix	3	all	langevin 1.4 1.4 1.0 437624

run	5000
Generated 0 of 1 mixed pair_coeff terms from geometric mixing rule
Neighbor list info ...
  update: every = 1 steps, delay = 0 steps, check = yes
  max neighbors/atom: 2000, page size: 100000
  master list distance cutoff = 2.8
  ghost atom cutoff = 2.8
  binsize = 1.4, bins = 45 45 45
  1 neighbor lists, perpetual/occasional/extra = 1 0 0
  (1) pair lj/cut, perpetual
      attributes: half, newton on
      pair build: half/bin/newton
      stencil: half/bin/3d
      bin: standard
Per MPI rank memory allocation (min/avg/max) = 7.552 | 7.555 | 7.559 Mbytes
   Step          Temp          PotEng         TotEng         Press         Enthalpy          Lx             Ly             Lz            Pxx            Pyy            Pzz      
         0   1.3963219      5.9478449      7.0445809      0.048565317    9.13595        62.244         62.244         62.244         0.0091983659   0.11850113     0.017996458  
       100   1.3999025      5.9707695      7.0703179      0.027293074    8.24564        62.244         62.244         62.244         0.017246307    0.04732529     0.017307624  
       200   1.4245544      5.9878446      7.1067558      0.0072016369   7.41688        62.244         62.244         62.244         0.0071370801   0.0084066589   0.0060611719 
       300   1.4212057      5.9942604      7.1105414      0.0023296933   7.210865       62.244         62.244         62.244        -0.0059197015   0.0040269953   0.008881786  
       400   1.4030116      5.9953214      7.0973119      0.0055751834   7.3373961      62.244         62.244         62.244        -0.0026920847   0.013323321    0.0060943141 
       500   1.4201338      5.9984777      7.1139168     -0.0018229523   7.035415       62.244         62.244         62.244        -0.0082217102  -0.00047319975  0.0032260529 
       600   1.425173       5.9902537      7.1096508      0.013367744    7.6853062      62.244         62.244         62.244         0.012971415    0.016298595    0.010833222  
       700   1.4181225      5.9840752      7.0979345      0.0014999758   7.1625279      62.244         62.244         62.244        -0.0015835387   0.0045967753   0.0014866907 
       800   1.4084205      5.9778462      7.084085       0.0063728488   7.3585191      62.244         62.244         62.244         0.0036202744   0.005593586    0.0099046859 
       900   1.3958301      5.9891019      7.0854517      0.0028974454   7.2102244      62.244         62.244         62.244         0.0087724642   0.0014508428  -0.001530971  
      1000   1.3937374      5.9794855      7.0741916      0.0087158481   7.4495223      62.244         62.244         62.244         0.014424783    0.0034958881   0.0082268735 
      1100   1.3729162      5.9916252      7.0699773      0.0030451966   7.2011127      62.244         62.244         62.244         0.00084635444 -0.00064448421  0.0089337195 
      1200   1.4427374      5.9713589      7.1045519      0.0042680608   7.2883474      62.244         62.244         62.244         0.0030884628   0.0031576538   0.0065580658 
      1300   1.3971469      5.9728674      7.0702514      0.0022809251   7.168475       62.244         62.244         62.244         0.00060902513 -0.00020572386  0.006439474  
      1400   1.4194118      5.9672631      7.082135       0.012945844    7.6396221      62.244         62.244         62.244         0.0082418827   0.016256336    0.014339314  
      1500   1.3866472      5.9728382      7.0619753      0.0010642438   7.1078049      62.244         62.244         62.244         0.0020316123   0.0020439035  -0.00088278432
      1600   1.4184955      5.9539591      7.0681113      0.0077605409   7.4023036      62.244         62.244         62.244         0.0033721722   0.0057827512   0.014126699  
      1700   1.3612202      5.9676733      7.0368389      0.00016862131  7.0441002      62.244         62.244         62.244         0.0052525345   0.0007705269  -0.0055171975 
      1800   1.3641041      5.9521837      7.0236144      0.0057884587   7.2728829      62.244         62.244         62.244         0.0038061044   0.0044032908   0.009155981  
      1900   1.3594477      5.9646024      7.0323757      0.0044261926   7.2229809      62.244         62.244         62.244         0.0019417448   0.006871542    0.004465291  
      2000   1.3776971      5.9431816      7.0252888     -0.0012460593   6.9716298      62.244         62.244         62.244        -0.0010913822   0.00098119436 -0.0036279901 
      2100   1.3986245      5.9509735      7.0495181      0.007520633    7.3733792      62.244         62.244         62.244         0.008359824    0.0075919773   0.0066100978 
      2200   1.4033594      5.9548158      7.0570794      0.0016804284   7.1294438      62.244         62.244         62.244        -0.001842641    0.0032876741   0.0035962521 
      2300   1.4048926      5.9444129      7.0478808      0.0062444034   7.3167836      62.244         62.244         62.244         0.004383569    0.0065720464   0.007777595  
      2400   1.4044043      5.9370822      7.0401666      0.0034562836   7.1890046      62.244         62.244         62.244         0.0068959298   0.0041111713  -0.00063825026
      2500   1.4200762      5.9359254      7.0513193      0.0028319649   7.1732722      62.244         62.244         62.244        -0.00030414204  0.0039571831   0.0048428538 
      2600   1.3876469      5.9249124      7.0148347     -0.0017777225   6.9382806      62.244         62.244         62.244        -0.00047616393 -0.0025484918  -0.0023085117 
      2700   1.4099941      5.916763       7.0242378      0.0070716262   7.3287634      62.244         62.244         62.244         0.012628756    0.0053812866   0.0032048359 
      2800   1.4444643      5.9283432      7.0628925      0.0019400023   7.1464349      62.244         62.244         62.244         0.0014895078   0.0046367397  -0.00030624049
      2900   1.3902832      5.9152516      7.0072446     -0.002166221    6.9139606      62.244         62.244         62.244        -0.0012374412  -0.00056403268 -0.0046971891 
      3000   1.3711706      5.922146       6.9991271      0.011101505    7.4771914      62.244         62.244         62.244         0.011063833    0.012093025    0.010147657  
      3100   1.3569137      5.9171753      6.9829583     -0.0028266769   6.8612331      62.244         62.244         62.244        -0.0069507251   0.0010084401  -0.0025377458 
      3200   1.4004275      5.905939       7.0058998      0.0054394667   7.2401397      62.244         62.244         62.244         0.010352184    0.0057594139   0.00020680257
      3300   1.3641217      5.9145275      6.985972      -0.0027212813   6.8687854      62.244         62.244         62.244        -0.00065933696 -0.005771301   -0.001733206  
      3400   1.3868722      5.9059546      6.9952684      0.0092591263   7.3939943      62.244         62.244         62.244         0.010690877    0.01075252     0.0063339817 
      3500   1.3939169      5.8992292      6.9940762      0.0074340014   7.3142068      62.244         62.244         62.244         0.010137307    0.0044252538   0.0077394438 
      3600   1.3982507      5.9219461      7.0201971      0.0056794512   7.2647714      62.244         62.244         62.244         0.0023367131   0.0080592141   0.0066424266 
      3700   1.4019908      5.9059957      7.0071844      0.0065915518   7.2910365      62.244         62.244         62.244         0.0049554052   0.010827013    0.0039922376 
      3800   1.3960736      5.902079       6.9986201      0.0027763672   7.1181788      62.244         62.244         62.244        -0.0015907142   0.0025862031   0.0073336126 
      3900   1.4352825      5.8986216      7.0259591      0.003498295    7.1766062      62.244         62.244         62.244         0.0030417173   0.0027739456   0.0046792221 
      4000   1.4121845      5.9079028      7.0170981      0.0050462581   7.2344052      62.244         62.244         62.244         0.0045543085   0.0064113637   0.0041731022 
      4100   1.3989579      5.9082397      7.0070461      0.00042870391  7.0255074      62.244         62.244         62.244         0.0025733986   0.0025181076  -0.0038053944 
      4200   1.399883       5.8998147      6.9993477      0.0042777423   7.1835602      62.244         62.244         62.244         0.0013744675   0.0064699404   0.0049888191 
      4300   1.4076025      5.9044509      7.0100472      0.0066788698   7.2976595      62.244         62.244         62.244         0.007361029    0.0048139331   0.0078616474 
      4400   1.4161078      5.9064334      7.0187102     -0.0011844913   6.9677025      62.244         62.244         62.244        -0.001908963   -0.0037556847   0.0021111739 
      4500   1.429225       5.8980089      7.0205885      0.0018498822   7.10025        62.244         62.244         62.244         0.0041143046   0.0010156504   0.00041969169
      4600   1.3958783      5.894313       6.9907006      0.0041483111   7.1693394      62.244         62.244         62.244         0.0033996217   0.0041616835   0.004883628  
      4700   1.3856609      5.8886843      6.9770467      0.0013148711   7.033669       62.244         62.244         62.244        -0.00051706505  0.0030872136   0.0013744648 
      4800   1.4016792      5.902351       7.0032949      0.0025050908   7.1111717      62.244         62.244         62.244         0.0016540384  -0.00018095286  0.0060421869 
      4900   1.4466248      5.9050606      7.0413069     -0.0026620212   6.9266722      62.244         62.244         62.244        -0.00069094879 -0.0073956145   0.00010049979
      5000   1.4387209      5.9077482      7.0377864      0.0049404333   7.2505363      62.244         62.244         62.244         0.0042769255   0.0046681652   0.0058762093 
Loop time of 2.72962 on 4 procs for 5000 steps with 5600 atoms

Performance: 791319.942 tau/day, 1831.759 timesteps/s, 10.258 Matom-step/s
99.3% CPU use with 4 MPI tasks x 1 OpenMP threads

MPI task timing breakdown:
Section |  min time  |  avg time  |  max time  |%varavg| %total
---------------------------------------------------------------
Pair    | 0.06605    | 0.10369    | 0.14557    |  11.7 |  3.80
Bond    | 0.03005    | 0.045571   | 0.06035    |   6.5 |  1.67
Neigh   | 0.61326    | 0.61489    | 0.61678    |   0.2 | 22.53
Comm    | 0.14416    | 0.19908    | 0.25001    |  11.1 |  7.29
Output  | 0.0017405  | 0.0025188  | 0.0028143  |   0.9 |  0.09
Modify  | 1.522      | 1.6149     | 1.699      |   6.3 | 59.16
Other   |            | 0.1489     |            |       |  5.46

Nlocal:           1400 ave        1868 max         905 min
Histogram: 1 1 0 0 0 0 0 0 0 2
Nghost:         648.25 ave         688 max         598 min
Histogram: 1 0 0 1 0 0 0 0 1 1
Neighs:         1202.5 ave        1821 max         698 min
Histogram: 2 0 0 0 0 0 0 1 0 1

Total # of neighbors = 4810
Ave neighs/atom = 0.85892857
Ave special neighs/atom = 0.57142857
Neighbor list builds = 759
Dangerous builds = 0

# Replace fix rigid and fix langevin with new ones

unfix	1
unfix	3

fix	3	tethers langevin 1.4 1.4 1.0 198450

# Test different integrators for rods

fix	1 rods	rigid/nve molecule
  800 rigid bodies with 4000 atoms
print 	"rigid/nve"
rigid/nve
run	1000
Generated 0 of 1 mixed pair_coeff terms from geometric mixing rule
Per MPI rank memory allocation (min/avg/max) = 7.557 | 7.566 | 7.574 Mbytes
   Step          Temp          PotEng         TotEng         Press         Enthalpy          Lx             Ly             Lz            Pxx            Pyy            Pzz      
      5000   1.4387209      5.9077482      7.0377864      0.0036839327   7.1964276      62.244         62.244         62.244         0.025677952   -0.016670649    0.002044495  
      5100   1.4449629      5.8876265      7.0225675      0.0023125815   7.1221542      62.244         62.244         62.244         0.0045991271   0.0036872425  -0.0013486251 
      5200   1.4271279      5.9160281      7.0369606      0.0020315691   7.1244461      62.244         62.244         62.244        -0.0022476411   0.0039290288   0.0044133197 
      5300   1.4143266      5.9052803      7.0161581      0.0064093985   7.2921661      62.244         62.244         62.244         0.0090986577   0.0026397649   0.0074897729 
      5400   1.4426551      5.9087477      7.041876       0.0020419183   7.1298072      62.244         62.244         62.244         0.0043078454   1.5623413e-05  0.001802286  
      5500   1.4280605      5.9038941      7.0255591      0.00057730336  7.0504195      62.244         62.244         62.244         0.0058938228   0.00065558729 -0.0048175    
      5600   1.4315004      5.902394       7.0267609      0.0096531882   7.4424563      62.244         62.244         62.244         0.0054225258   0.011780272    0.011756766  
      5700   1.4074659      5.9076093      7.0130984      0.0052032455   7.2371658      62.244         62.244         62.244         0.0029612305   0.003678953    0.008969553  
      5800   1.4216898      5.9047983      7.0214595      0.0015109698   7.0865264      62.244         62.244         62.244        -6.4662019e-05  0.0023994389   0.0021981326 
      5900   1.4052133      5.8920187      6.9957385      0.0065755622   7.278902       62.244         62.244         62.244         0.0062703932   0.011367786    0.002088507  
      6000   1.3958734      5.9025061      6.9988899      0.0071783223   7.3080101      62.244         62.244         62.244         0.0088905564   0.0025533521   0.010091058  
Loop time of 0.646284 on 4 procs for 1000 steps with 5600 atoms

Performance: 668436.315 tau/day, 1547.306 timesteps/s, 8.665 Matom-step/s
99.1% CPU use with 4 MPI tasks x 1 OpenMP threads

MPI task timing breakdown:
Section |  min time  |  avg time  |  max time  |%varavg| %total
---------------------------------------------------------------
Pair    | 0.01802    | 0.028926   | 0.041262   |   6.4 |  4.48
Bond    | 0.0066363  | 0.0098826  | 0.012811   |   2.9 |  1.53
Neigh   | 0.14233    | 0.14273    | 0.14311    |   0.1 | 22.08
Comm    | 0.029365   | 0.044453   | 0.057955   |   6.3 |  6.88
Output  | 0.00034317 | 0.00049475 | 0.00055796 |   0.0 |  0.08
Modify  | 0.35817    | 0.37856    | 0.40064    |   2.8 | 58.57
Other   |            | 0.04124    |            |       |  6.38

Nlocal:           1400 ave        1850 max         932 min
Histogram: 2 0 0 0 0 0 0 0 0 2
Nghost:         642.25 ave         730 max         550 min
Histogram: 1 0 0 1 0 0 0 1 0 1
Neighs:        1267.25 ave        1805 max         729 min
Histogram: 1 1 0 0 0 0 0 0 1 1

Total # of neighbors = 5069
Ave neighs/atom = 0.90517857
Ave special neighs/atom = 0.57142857
Neighbor list builds = 154
Dangerous builds = 0
unfix	1

fix	1 rods	rigid/nvt molecule temp 1.4 1.4 1.0
  800 rigid bodies with 4000 atoms
print 	"rigid/nvt"
rigid/nvt
run	1000
Generated 0 of 1 mixed pair_coeff terms from geometric mixing rule
Per MPI rank memory allocation (min/avg/max) = 7.557 | 7.566 | 7.574 Mbytes
   Step          Temp          PotEng         TotEng         Press         Enthalpy          Lx             Ly             Lz            Pxx            Pyy            Pzz      
      6000   1.3958734      5.9025061      6.9988899      0.0021028569   7.0894453      62.244         62.244         62.244         0.013626393    0.019990521   -0.027308344  
      6100   1.403297       5.9008111      7.0030257      0.0034667159   7.152313       62.244         62.244         62.244         0.00094173119  0.0074633638   0.0019950526 
      6200   1.4025256      5.8966477      6.9982564     -0.00020483779  6.9894355      62.244         62.244         62.244        -0.0064238043   0.0010245391   0.0047847518 
      6300   1.4394011      5.9052004      7.0357728      0.0054604133   7.2709147      62.244         62.244         62.244         0.0096132747   0.002164465    0.0046035003 
      6400   1.408769       5.8824709      6.9889834      0.005608612    7.2305072      62.244         62.244         62.244         0.0042736813   0.0053311794   0.0072209755 
      6500   1.3956548      5.8831208      6.9793329      0.0085962528   7.3495135      62.244         62.244         62.244         0.0082055979   0.011231962    0.0063511989 
      6600   1.3758562      5.8829365      6.9635978      0.0065047826   7.2437134      62.244         62.244         62.244         0.005468046    0.0069917695   0.0070545323 
      6700   1.3804704      5.8923062      6.9765917      0.0057976076   7.2262542      62.244         62.244         62.244         0.0052851407   0.011935403    0.00017227886
      6800   1.396967       5.8774293      6.974672       0.0018361999   7.0537443      62.244         62.244         62.244         1.5181397e-05  0.0031700121   0.0023234062 
      6900   1.3966118      5.8872183      6.9841821      0.0029553371   7.1114478      62.244         62.244         62.244        -0.0022750426   0.0055197498   0.005621304  
      7000   1.3992657      5.8918087      6.990857       0.0033614376   7.1356106      62.244         62.244         62.244         0.0019626838  -0.0019054573   0.010027086  
Loop time of 0.627583 on 4 procs for 1000 steps with 5600 atoms

Performance: 688355.013 tau/day, 1593.414 timesteps/s, 8.923 Matom-step/s
99.5% CPU use with 4 MPI tasks x 1 OpenMP threads

MPI task timing breakdown:
Section |  min time  |  avg time  |  max time  |%varavg| %total
---------------------------------------------------------------
Pair    | 0.017522   | 0.028358   | 0.041297   |   6.2 |  4.52
Bond    | 0.0060681  | 0.0092563  | 0.012417   |   2.9 |  1.47
Neigh   | 0.13625    | 0.13667    | 0.13709    |   0.1 | 21.78
Comm    | 0.027966   | 0.043787   | 0.057522   |   6.2 |  6.98
Output  | 0.00035478 | 0.00049121 | 0.00055892 |   0.0 |  0.08
Modify  | 0.35811    | 0.37631    | 0.39333    |   2.6 | 59.96
Other   |            | 0.03272    |            |       |  5.21

Nlocal:           1400 ave        1883 max         958 min
Histogram: 2 0 0 0 0 0 0 0 1 1
Nghost:            665 ave         803 max         565 min
Histogram: 1 1 0 0 0 1 0 0 0 1
Neighs:        1272.25 ave        1895 max         762 min
Histogram: 2 0 0 0 0 0 0 1 0 1

Total # of neighbors = 5089
Ave neighs/atom = 0.90875
Ave special neighs/atom = 0.57142857
Neighbor list builds = 150
Dangerous builds = 0
unfix	1

compute	myTemp all temp

fix	1 rods	rigid/npt molecule temp 1.4 1.4 1.0 iso 0.05 0.05 1.0         dilate all
  800 rigid bodies with 4000 atoms
print 	"rigid/npt iso"
rigid/npt iso
fix_modify 1 temp myTemp

run	1000
Generated 0 of 1 mixed pair_coeff terms from geometric mixing rule
Per MPI rank memory allocation (min/avg/max) = 7.557 | 7.566 | 7.574 Mbytes
   Step          Temp          PotEng         TotEng         Press         Enthalpy          Lx             Ly             Lz            Pxx            Pyy            Pzz      
      7000   1.3992657      5.8918087      6.990857       0.016459779    7.6996647      62.244         62.244         62.244         0.056781831   -0.019577361    0.012174866  
      7100   1.5086944      5.8706667      7.0556653      0.011656301    7.4412826      57.006966      57.006966      57.006966      0.015012728    0.015151838    0.0048043378 
      7200   1.5444857      5.8347072      7.047818       0.025893976    7.6357076      50.283831      50.283831      50.283831      0.021166084    0.027070838    0.029445006  
      7300   1.5460527      5.7950177      7.0093593      0.02162991     7.3688559      45.318555      45.318555      45.318555      0.014747735    0.037527921    0.012614075  
      7400   1.5613693      5.7516603      6.9780323      0.034798817    7.4279201      41.678228      41.678228      41.678228      0.041296806    0.025288632    0.037811012  
      7500   1.5582169      5.7359749      6.9598708      0.029878761    7.2757008      38.972622      38.972622      38.972622      0.031657651    0.020061922    0.037916711  
      7600   1.5578367      5.6988812      6.9224785      0.045695884    7.3351888      36.981577      36.981577      36.981577      0.040243029    0.039644927    0.057199697  
      7700   1.5148812      5.6528692      6.8427272      0.022439627    7.0209705      35.43196       35.43196       35.43196       0.010631952    0.017769669    0.03891726   
      7800   1.529109       5.6051059      6.8061392      0.054079172    7.1911354      34.161596      34.161596      34.161596      0.034939239    0.071325426    0.05597285   
      7900   1.5182819      5.5708546      6.7633838      0.066345571    7.1933547      33.108416      33.108416      33.108416      0.060359678    0.07068182     0.067995216  
      8000   1.4677372      5.5540248      6.7068537      0.033729921    6.90804        32.205032      32.205032      32.205032      0.049412183    0.016101823    0.035675755  
Loop time of 1.1282 on 4 procs for 1000 steps with 5600 atoms

Performance: 382910.795 tau/day, 886.368 timesteps/s, 4.964 Matom-step/s
99.3% CPU use with 4 MPI tasks x 1 OpenMP threads

MPI task timing breakdown:
Section |  min time  |  avg time  |  max time  |%varavg| %total
---------------------------------------------------------------
Pair    | 0.047245   | 0.075421   | 0.11065    |  10.1 |  6.69
Bond    | 0.0077964  | 0.011056   | 0.014794   |   2.9 |  0.98
Neigh   | 0.47306    | 0.4737     | 0.47434    |   0.1 | 41.99
Comm    | 0.047565   | 0.086613   | 0.11788    |  10.3 |  7.68
Output  | 0.00031206 | 0.00038703 | 0.00060877 |   0.0 |  0.03
Modify  | 0.43174    | 0.44726    | 0.46676    |   2.3 | 39.64
Other   |            | 0.03376    |            |       |  2.99

Nlocal:           1400 ave        1845 max        1051 min
Histogram: 2 0 0 0 0 0 0 1 0 1
Nghost:        1558.25 ave        1732 max        1431 min
Histogram: 1 0 1 0 1 0 0 0 0 1
Neighs:        6210.75 ave        9543 max        3698 min
Histogram: 2 0 0 0 0 0 0 1 0 1

Total # of neighbors = 24843
Ave neighs/atom = 4.43625
Ave special neighs/atom = 0.57142857
Neighbor list builds = 335
Dangerous builds = 0
unfix	1

fix	1 rods	rigid/npt molecule temp 1.4 1.4 1.0 x 0.05 0.05 1.0 dilate all
  800 rigid bodies with 4000 atoms
print 	"rigid/npt x"
rigid/npt x
run	1000
Generated 0 of 1 mixed pair_coeff terms from geometric mixing rule
Per MPI rank memory allocation (min/avg/max) = 7.567 | 7.579 | 7.596 Mbytes
   Step          Temp          PotEng         TotEng         Press         Enthalpy          Lx             Ly             Lz            Pxx            Pyy            Pzz      
      8000   1.4677372      5.5540248      6.7068537     -0.017850632    6.6003814      32.205032      32.205032      32.205032     -0.10278017    -0.1824093      0.23163757   
      8100   1.4540331      5.5388671      6.6809322      0.022562574    6.8139144      31.823315      32.205032      32.205032      0.028408548    0.028883436    0.010395737  
      8200   1.4702497      5.4971666      6.6519689      0.031541665    6.8340274      31.164985      32.205032      32.205032      0.05198967     0.017790558    0.024844767  
      8300   1.4895576      5.4752966      6.6452643      0.049612462    6.9245663      30.396516      32.205032      32.205032      0.050583662    0.041684528    0.056569197  
      8400   1.4546023      5.4627064      6.6052185      0.014637455    6.6862795      29.901065      32.205032      32.205032      0.022874978   -0.0061332581   0.027170646  
      8500   1.4485789      5.4330137      6.5707949      0.06887386     6.9450276      29.337823      32.205032      32.205032      0.082103679    0.041682043    0.082835857  
      8600   1.4443937      5.4261726      6.5606664      0.02551672     6.6959898      28.63444       32.205032      32.205032      0.028149026    0.066325162   -0.017924027  
      8700   1.4329121      5.409813       6.5352887      0.028828984    6.6848753      28.015854      32.205032      32.205032      0.015384578    0.050827744    0.02027463   
      8800   1.4015747      5.4009279      6.5017898      0.046423411    6.7374794      27.41221       32.205032      32.205032      0.099149897    0.019633915    0.020486421  
      8900   1.411353       5.3728016      6.4813438      0.046095308    6.711069       26.908695      32.205032      32.205032      0.04716092     0.029778906    0.061346098  
      9000   1.3987178      5.3528351      6.451453       0.029891295    6.5977498      26.425959      32.205032      32.205032      0.033096258    0.039059663    0.017517965  
Loop time of 1.05732 on 4 procs for 1000 steps with 5600 atoms

Performance: 408581.873 tau/day, 945.791 timesteps/s, 5.296 Matom-step/s
99.3% CPU use with 4 MPI tasks x 1 OpenMP threads

MPI task timing breakdown:
Section |  min time  |  avg time  |  max time  |%varavg| %total
---------------------------------------------------------------
Pair    | 0.084017   | 0.12178    | 0.1674     |  10.7 | 11.52
Bond    | 0.0087866  | 0.011339   | 0.014172   |   2.1 |  1.07
Neigh   | 0.35177    | 0.35194    | 0.35221    |   0.0 | 33.29
Comm    | 0.046529   | 0.094466   | 0.13331    |  12.7 |  8.93
Output  | 0.00031081 | 0.00038714 | 0.00061511 |   0.0 |  0.04
Modify  | 0.43779    | 0.45007    | 0.46334    |   1.8 | 42.57
Other   |            | 0.02734    |            |       |  2.59

Nlocal:           1400 ave        1718 max        1133 min
Histogram: 2 0 0 0 0 0 0 0 1 1
Nghost:        1700.75 ave        1793 max        1533 min
Histogram: 1 0 0 0 0 0 1 0 0 2
Neighs:        7936.75 ave       10967 max        5250 min
Histogram: 2 0 0 0 0 0 0 0 1 1

Total # of neighbors = 31747
Ave neighs/atom = 5.6691071
Ave special neighs/atom = 0.57142857
Neighbor list builds = 169
Dangerous builds = 0
unfix	1

fix	1 rods	rigid/nph molecule iso 0.05 0.05 1.0 dilate all
  800 rigid bodies with 4000 atoms
print 	"rigid/nph iso"
rigid/nph iso
run	1000
Generated 0 of 1 mixed pair_coeff terms from geometric mixing rule
Per MPI rank memory allocation (min/avg/max) = 7.568 | 7.58 | 7.597 Mbytes
   Step          Temp          PotEng         TotEng         Press         Enthalpy          Lx             Ly             Lz            Pxx            Pyy            Pzz      
      9000   1.3987178      5.3528351      6.451453       0.26585248     7.7526137      26.425959      32.205032      32.205032      0.02018168     0.47782722     0.29954855   
      9100   1.4351747      5.3304458      6.4576986      0.051746697    6.707501       26.305023      32.057649      32.057649      0.073064096    0.037508173    0.044667823  
      9200   1.442609       5.3185643      6.4516564      0.026933669    6.5768423      25.974904      31.655336      31.655336      0.0097800385   0.035425194    0.035595776  
      9300   1.4528107      5.2812305      6.4223354      0.074634951    6.7601945      25.747306      31.377965      31.377965      0.12937272     0.031196451    0.063335685  
      9400   1.4778194      5.2625966      6.4233445      0.0179548      6.5034822      25.626311      31.23051       31.23051       0.042627054   -0.047901197    0.059138542  
      9500   1.4406019      5.2661826      6.3976982      0.048963663    6.6143417      25.551982      31.139926      31.139926      0.097226703   -0.0051171725   0.054781458  
      9600   1.4463517      5.2420508      6.3780826      0.033338493    6.5253103      25.535743      31.120136      31.120136      0.013953126    0.066958907    0.019103444  
      9700   1.4040075      5.264089       6.3668617      0.075486855    6.6986983      25.496763      31.072631      31.072631      0.051974464    0.097239496    0.077246606  
      9800   1.4369291      5.25259        6.3812208      0.062882837    6.6532231      25.359898      30.905835      30.905835      0.088614069    0.087884794    0.012149647  
      9900   1.4426697      5.2270989      6.3602387      0.070910381    6.6603048      25.175015      30.68052       30.68052       0.081294501    0.056618911    0.07481773   
     10000   1.4714476      5.2051468      6.3608901      0.038441228    6.5234989      25.171919      30.676748      30.676748      0.021691591    0.0086967032   0.084935388  
Loop time of 1.07529 on 4 procs for 1000 steps with 5600 atoms

Performance: 401751.573 tau/day, 929.980 timesteps/s, 5.208 Matom-step/s
99.4% CPU use with 4 MPI tasks x 1 OpenMP threads

MPI task timing breakdown:
Section |  min time  |  avg time  |  max time  |%varavg| %total
---------------------------------------------------------------
Pair    | 0.10178    | 0.14349    | 0.18701    |  10.0 | 13.34
Bond    | 0.0094369  | 0.011359   | 0.01342    |   1.5 |  1.06
Neigh   | 0.35737    | 0.35764    | 0.35787    |   0.0 | 33.26
Comm    | 0.048562   | 0.093503   | 0.13651    |  12.7 |  8.70
Output  | 0.00029714 | 0.00035903 | 0.0005404  |   0.0 |  0.03
Modify  | 0.43477    | 0.44365    | 0.45263    |   1.3 | 41.26
Other   |            | 0.0253     |            |       |  2.35

Nlocal:           1400 ave        1650 max        1148 min
Histogram: 1 0 1 0 0 0 0 1 0 1
Nghost:         1770.5 ave        1864 max        1640 min
Histogram: 1 0 0 0 0 1 0 0 1 1
Neighs:        9370.75 ave       12213 max        6410 min
Histogram: 1 1 0 0 0 0 0 0 0 2

Total # of neighbors = 37483
Ave neighs/atom = 6.6933929
Ave special neighs/atom = 0.57142857
Neighbor list builds = 162
Dangerous builds = 0
unfix	1

fix	1 rods	rigid/nph molecule x 0.05 0.05 1.0 y 0.05 0.05 1.0         couple xy dilate all
  800 rigid bodies with 4000 atoms
print 	"rigid/nph xy couple"
rigid/nph xy couple
run	1000
Generated 0 of 1 mixed pair_coeff terms from geometric mixing rule
Per MPI rank memory allocation (min/avg/max) = 7.569 | 7.58 | 7.597 Mbytes
   Step          Temp          PotEng         TotEng         Press         Enthalpy          Lx             Ly             Lz            Pxx            Pyy            Pzz      
     10000   1.4714476      5.2051468      6.3608901     -0.096738415    5.9516804      25.171919      30.676748      30.676748     -0.07465944     0.069571401   -0.28512721   
     10100   1.4336012      5.2129069      6.3389239      0.069305782    6.6336186      25.237381      30.756525      30.676748      0.1042358      0.062982076    0.040699467  
     10200   1.3850266      5.2255115      6.3133757     -0.026502584    6.1990129      25.423835      30.983755      30.676748     -0.018638813   -0.01225392    -0.048615018  
     10300   1.4059572      5.2273228      6.3316268      0.026841528    6.4477936      25.461278      31.029386      30.676748      0.0032748153   0.054971756    0.022278013  
     10400   1.4085811      5.2218002      6.3281652      0.087028058    6.7005137      25.315588      30.851835      30.676748      0.095488962    0.059423478    0.10617173   
     10500   1.4323046      5.1961285      6.321127       0.011963636    6.3715428      25.124329      30.61875       30.676748      0.047765438   -0.013073535    0.0011990069 
     10600   1.4401614      5.1744178      6.3055874      0.065577091    6.5770196      24.899891      30.345229      30.676748      0.05130409     0.11923748     0.026189709  
     10700   1.45262        5.1656069      6.3065622      0.019979844    6.3873914      24.616776      30.0002        30.676748      0.062077837    0.01564587    -0.017784176  
     10800   1.436593       5.1491998      6.2775666      0.06467682     6.5343926      24.388662      29.722201      30.676748      0.055509186    0.081686998    0.056834275  
     10900   1.4221057      5.1580272      6.2750151      0.10779715     6.6964287      24.198783      29.490797      30.676748      0.11821126     0.13388181     0.071298392  
     11000   1.4318097      5.1652839      6.2898937      0.12207839     6.7635101      24.106649      29.378514      30.676748      0.13281999     0.095712525    0.13770264   
Loop time of 1.05977 on 4 procs for 1000 steps with 5600 atoms

Performance: 407635.235 tau/day, 943.600 timesteps/s, 5.284 Matom-step/s
99.2% CPU use with 4 MPI tasks x 1 OpenMP threads

MPI task timing breakdown:
Section |  min time  |  avg time  |  max time  |%varavg| %total
---------------------------------------------------------------
Pair    | 0.11531    | 0.15482    | 0.18642    |   8.0 | 14.61
Bond    | 0.0095915  | 0.011316   | 0.012716   |   1.2 |  1.07
Neigh   | 0.34708    | 0.34732    | 0.34748    |   0.0 | 32.77
Comm    | 0.050629   | 0.082561   | 0.12326    |  11.1 |  7.79
Output  | 0.00029841 | 0.00036751 | 0.00057311 |   0.0 |  0.03
Modify  | 0.43421    | 0.44242    | 0.45027    |   0.9 | 41.75
Other   |            | 0.02097    |            |       |  1.98

Nlocal:           1400 ave        1551 max        1205 min
Histogram: 1 0 0 1 0 0 0 0 1 1
Nghost:         1831.5 ave        1910 max        1688 min
Histogram: 1 0 0 0 0 1 0 0 0 2
Neighs:        10203.8 ave       12647 max        7619 min
Histogram: 1 0 1 0 0 0 0 1 0 1

Total # of neighbors = 40815
Ave neighs/atom = 7.2883929
Ave special neighs/atom = 0.57142857
Neighbor list builds = 161
Dangerous builds = 0

Total wall time: 0:00:08
