LAMMPS (7 Feb 2024 - Development - patch_7Feb2024_update1-306-gf3391199e7-modified)
  using 1 OpenMP thread(s) per MPI task
# Tethered nanorods

atom_style	molecular

read_data	data.rigid.tnr
Reading data file ...
  orthogonal box = (-31.122 -31.122 -31.122) to (31.122 31.122 31.122)
  1 by 1 by 1 MPI processor grid
  reading atoms ...
  5600 atoms
  scanning bonds ...
  1 = max bonds/atom
  reading bonds ...
  1600 bonds
Finding 1-2 1-3 1-4 neighbors ...
  special bond factors lj:    0        0        0       
  special bond factors coul:  0        0        0       
     2 = max # of 1-2 neighbors
     1 = max # of 1-3 neighbors
     1 = max # of 1-4 neighbors
     2 = max # of special neighbors
  special bonds CPU = 0.001 seconds
  read_data CPU = 0.027 seconds

# Specify bond parameters

bond_style	fene
bond_coeff	1 30.0 1.5 1.0 1.0

special_bonds	fene
Finding 1-2 1-3 1-4 neighbors ...
  special bond factors lj:    0        1        1       
  special bond factors coul:  0        1        1       
     2 = max # of 1-2 neighbors
     2 = max # of special neighbors
  special bonds CPU = 0.001 seconds

# Specify initial velocities

velocity	all create 1.4 109345

# Specify rigid components

group		rods type 2
4000 atoms in group rods
group		tethers	subtract all rods
1600 atoms in group tethers

neigh_modify 	exclude	molecule/intra rods delay 0 every 1

# Specify the pair potentials

pair_style	lj/cut	2.5
pair_modify	shift	yes
pair_coeff	* * 1.0	1.0 1.122
pair_coeff	2 2 1.0 1.0 2.5

# Specify output

thermo	100
thermo_style custom step temp pe etotal press enthalpy lx ly lz pxx pyy pzz
thermo_modify flush yes lost warn

timestep	0.005

fix	1	rods	rigid molecule
  800 rigid bodies with 4000 atoms
fix	2	tethers	nve
fix	3	all	langevin 1.4 1.4 1.0 437624

run	5000
Generated 0 of 1 mixed pair_coeff terms from geometric mixing rule
Neighbor list info ...
  update: every = 1 steps, delay = 0 steps, check = yes
  max neighbors/atom: 2000, page size: 100000
  master list distance cutoff = 2.8
  ghost atom cutoff = 2.8
  binsize = 1.4, bins = 45 45 45
  1 neighbor lists, perpetual/occasional/extra = 1 0 0
  (1) pair lj/cut, perpetual
      attributes: half, newton on
      pair build: half/bin/newton
      stencil: half/bin/3d
      bin: standard
Per MPI rank memory allocation (min/avg/max) = 8.017 | 8.017 | 8.017 Mbytes
   Step          Temp          PotEng         TotEng         Press         Enthalpy          Lx             Ly             Lz            Pxx            Pyy            Pzz      
         0   1.3963219      5.9478449      7.0445809      0.048565317    9.13595        62.244         62.244         62.244         0.0091983659   0.11850113     0.017996458  
       100   1.3418512      5.9671777      7.0211299      0.025020362    8.0985822      62.244         62.244         62.244         0.02036076     0.038265078    0.016435248  
       200   1.3730638      5.9750802      7.0535483      0.0053287535   7.2830205      62.244         62.244         62.244        -0.00054924195  0.0092396988   0.0072958036 
       300   1.376262       5.9821642      7.0631443      0.0055536521   7.3023013      62.244         62.244         62.244         0.0033577704   0.0069111861   0.0063919998 
       400   1.3782954      5.9983628      7.08094        0.0020507385   7.169251       62.244         62.244         62.244        -0.0060862717   0.0098998072   0.0023386801 
       500   1.386863       6.0053312      7.0946377     -0.0009847031   7.0522334      62.244         62.244         62.244        -0.0038708372   0.0005697804   0.00034694745
       600   1.4069849      6.0035719      7.1086832      0.0047883912   7.3148858      62.244         62.244         62.244         0.001069365    0.0078059505   0.0054898581 
       700   1.4423187      5.9982171      7.1310812      0.012141001    7.6539093      62.244         62.244         62.244         0.0094765272   0.011007593    0.015938883  
       800   1.4303878      5.9968168      7.1203098     -0.00081349095  7.0852784      62.244         62.244         62.244         0.0011153812   0.00041597298 -0.0039718271 
       900   1.4140538      5.9838168      7.0944803      0.00207609     7.183883       62.244         62.244         62.244         0.00043409671  0.0022778944   0.0035162788 
      1000   1.3906567      5.988119       7.0804053      0.0022005856   7.1751692      62.244         62.244         62.244         0.0077268425  -0.0022042977   0.0010792119 
      1100   1.3921992      5.9892203      7.0827181      0.0035041977   7.2336194      62.244         62.244         62.244        -0.0037576823   0.0040827951   0.01018748   
      1200   1.3968803      5.9795846      7.0767592     -0.0031072146   6.9429532      62.244         62.244         62.244        -0.0077387449   0.0033056124  -0.0048885115 
      1300   1.3755848      5.9739757      7.0544239      0.0092247106   7.4516677      62.244         62.244         62.244         0.0092788748   0.010737194    0.0076580625 
      1400   1.3847985      5.9703631      7.0580481      0.0071703598   7.3668254      62.244         62.244         62.244         0.0080485848   0.012260474    0.001202021  
      1500   1.4190051      5.956946       7.0714985      0.0035992903   7.2264948      62.244         62.244         62.244        -0.0055125437   0.01038369     0.0059267242 
      1600   1.3980036      5.9671666      7.0652236      0.0061819851   7.3314385      62.244         62.244         62.244         0.0062429141   0.0035120077   0.0087910334 
      1700   1.4276062      5.9610381      7.0823462      0.007832375    7.4196319      62.244         62.244         62.244         0.0083316819   0.0058394292   0.009326014  
      1800   1.4112769      5.9630595      7.0715419      0.0068032101   7.3645087      62.244         62.244         62.244         0.0065502252   0.0062317255   0.0076276797 
      1900   1.4276973      5.9489341      7.0703139      0.008397746    7.4319462      62.244         62.244         62.244         0.0148941      0.0032963108   0.0070028268 
      2000   1.4056158      5.9564624      7.0604983      0.0090470732   7.4500926      62.244         62.244         62.244         0.011871718    0.0086681344   0.0066013673 
      2100   1.3924778      5.9483611      7.0420778      0.0088893819   7.4248814      62.244         62.244         62.244         0.010247454    0.0097830093   0.0066376825 
      2200   1.3760401      5.9435877      7.0243935     -0.0042972782   6.8393397      62.244         62.244         62.244        -0.0050064436  -0.0046216999  -0.0032636911 
      2300   1.4191937      5.9334036      7.0481042      0.0047000032   7.2505006      62.244         62.244         62.244         0.0057709635   0.0044949165   0.0038341296 
      2400   1.4213285      5.9472214      7.0635988      0.010197674    7.5027414      62.244         62.244         62.244         0.008373826    0.0090537939   0.013165402  
      2500   1.4153808      5.9421661      7.0538718      0.00015906306  7.0607216      62.244         62.244         62.244         0.002351621   -0.0019814986   0.00010706677
      2600   1.4014223      5.9431386      7.0438807      0.0070733749   7.3484816      62.244         62.244         62.244         0.0054143871   0.010055843    0.0057498948 
      2700   1.4138077      5.9369067      7.047377       0.0024268842   7.1518859      62.244         62.244         62.244         0.0052918436   0.0014960353   0.00049277371
      2800   1.432192       5.9347676      7.0596777      0.0077670448   7.3941501      62.244         62.244         62.244         0.012668421    0.0059113033   0.0047214106 
      2900   1.3938659      5.921023       7.01583        0.0053751198   7.2472989      62.244         62.244         62.244         0.0020490372   0.0076566093   0.006419713  
      3000   1.390221       5.9205014      7.0124455     -0.0010750977   6.9661485      62.244         62.244         62.244         0.0019519817  -0.0041878885  -0.00098938611
      3100   1.4205722      5.9178284      7.0336117      0.0098735475   7.4587965      62.244         62.244         62.244         0.0040973361   0.012167268    0.013356039  
      3200   1.398418       5.9150349      7.0134173      0.0061541841   7.2784351      62.244         62.244         62.244         0.0067621815   0.011952563   -0.00025219251
      3300   1.4269859      5.9148727      7.0356937      0.0060623879   7.2967584      62.244         62.244         62.244         0.012956234   -2.4806661e-05  0.0052557362 
      3400   1.434286       5.9356705      7.0622253      0.00027315892  7.0739884      62.244         62.244         62.244        -0.00054959866  0.0052526278  -0.0038835524 
      3500   1.4416809      5.9228153      7.0551783      0.0083382977   7.4142506      62.244         62.244         62.244         0.007399393    0.0030328007   0.014582699  
      3600   1.4136063      5.9039442      7.0142562      0.0019712004   7.0991421      62.244         62.244         62.244        -0.00032316149  0.0035029874   0.0027337752 
      3700   1.4333819      5.9120101      7.0378548      0.0071287182   7.3448389      62.244         62.244         62.244         0.0064768218   0.0046765361   0.010232797  
      3800   1.3659481      5.9032873      6.9761663     -0.0054033416   6.7434821      62.244         62.244         62.244        -0.0073943479  -0.0082831992  -0.00053247772
      3900   1.3963222      5.9042998      7.0010361      0.0053310264   7.2306062      62.244         62.244         62.244         0.0081855739   0.0048806019   0.0029269034 
      4000   1.4125482      5.9060665      7.0155474      0.0028450296   7.138063       62.244         62.244         62.244         0.0052588294   0.00072395285  0.0025523065 
      4100   1.3943951      5.9040875      6.9993102      0.0058050223   7.2492919      62.244         62.244         62.244         0.0060579697   0.0024782584   0.0088788387 
      4200   1.4249768      5.8906371      7.0098801      0.0030210669   7.1399763      62.244         62.244         62.244         0.006174431   -0.002079586    0.0049683557 
      4300   1.3899801      5.8966397      6.9883947      0.0057285402   7.2350829      62.244         62.244         62.244         0.0049048136   0.0021882328   0.010092574  
      4400   1.4414352      5.898628       7.0307981      0.0050932552   7.2501291      62.244         62.244         62.244         0.0057941393   0.0037951842   0.0056904421 
      4500   1.4092913      5.8922803      6.9992031      0.0012238869   7.0519073      62.244         62.244         62.244         0.0042907674   0.0014412643  -0.0020603711 
      4600   1.3779868      5.8928757      6.9752105      0.0020701322   7.0643566      62.244         62.244         62.244         0.0029283254  -0.0031683908   0.006450462  
      4700   1.4084635      5.9098782      7.0161508     -0.00052129502  6.9937023      62.244         62.244         62.244        -0.0018460523  -0.0018286314   0.0021107986 
      4800   1.4393258      5.9148464      7.0453597      0.015311954    7.7047386      62.244         62.244         62.244         0.014718813    0.01801777     0.013199278  
      4900   1.4500008      5.9076899      7.0465879      0.0075111779   7.3700419      62.244         62.244         62.244         0.0091865271   0.0080981174   0.0052488891 
      5000   1.4279632      5.9111567      7.0327453     -0.0014189553   6.9716408      62.244         62.244         62.244        -0.0046013754   0.0019937576  -0.001649248  
Loop time of 5.54157 on 1 procs for 5000 steps with 5600 atoms

Performance: 389781.415 tau/day, 902.272 timesteps/s, 5.053 Matom-step/s
99.7% CPU use with 1 MPI tasks x 1 OpenMP threads

MPI task timing breakdown:
Section |  min time  |  avg time  |  max time  |%varavg| %total
---------------------------------------------------------------
Pair    | 0.40156    | 0.40156    | 0.40156    |   0.0 |  7.25
Bond    | 0.172      | 0.172      | 0.172      |   0.0 |  3.10
Neigh   | 1.6573     | 1.6573     | 1.6573     |   0.0 | 29.91
Comm    | 0.10679    | 0.10679    | 0.10679    |   0.0 |  1.93
Output  | 0.0033706  | 0.0033706  | 0.0033706  |   0.0 |  0.06
Modify  | 3.0948     | 3.0948     | 3.0948     |   0.0 | 55.85
Other   |            | 0.1058     |            |       |  1.91

Nlocal:           5600 ave        5600 max        5600 min
Histogram: 1 0 0 0 0 0 0 0 0 0
Nghost:           1351 ave        1351 max        1351 min
Histogram: 1 0 0 0 0 0 0 0 0 0
Neighs:           5254 ave        5254 max        5254 min
Histogram: 1 0 0 0 0 0 0 0 0 0

Total # of neighbors = 5254
Ave neighs/atom = 0.93821429
Ave special neighs/atom = 0.57142857
Neighbor list builds = 766
Dangerous builds = 0

# Replace fix rigid and fix langevin with new ones

unfix	1
unfix	3

fix	3	tethers langevin 1.4 1.4 1.0 198450

# Test different integrators for rods

fix	1 rods	rigid/nve molecule
  800 rigid bodies with 4000 atoms
print 	"rigid/nve"
rigid/nve
run	1000
Generated 0 of 1 mixed pair_coeff terms from geometric mixing rule
Per MPI rank memory allocation (min/avg/max) = 8.018 | 8.018 | 8.018 Mbytes
   Step          Temp          PotEng         TotEng         Press         Enthalpy          Lx             Ly             Lz            Pxx            Pyy            Pzz      
      5000   1.4279632      5.9111567      7.0327453      0.027874409    8.2331015      62.244         62.244         62.244         0.018992956    0.039655696    0.024974575  
      5100   1.439608       5.9052128      7.0359478      0.0060989876   7.2985886      62.244         62.244         62.244         0.0087364154   0.0040228411   0.0055377063 
      5200   1.4120671      5.9102569      7.01936        0.0064301456   7.2962615      62.244         62.244         62.244         0.0082738088   0.0038925707   0.0071240574 
      5300   1.4452434      5.8842166      7.0193778      0.0081724166   7.3713067      62.244         62.244         62.244         0.0077715644   0.0068924374   0.0098532479 
      5400   1.4170243      5.887522       7.0005186      0.00086566653  7.0377968      62.244         62.244         62.244        -9.179779e-05  -0.0020237494   0.0047125468 
      5500   1.4209084      5.875892       6.9919394      0.009363414    7.3951563      62.244         62.244         62.244         0.0088769611   0.0087092372   0.010504044  
      5600   1.4132978      5.8798939      6.9899636      0.0014877902   7.0540323      62.244         62.244         62.244        -0.0023427699   0.0045593956   0.0022467449 
      5700   1.4065055      5.8875412      6.9922759      0.002808316    7.1132105      62.244         62.244         62.244         0.0025187553   0.00051088905  0.0053953037 
      5800   1.4079049      5.8940749      6.9999087      0.0015946903   7.0685809      62.244         62.244         62.244         0.0037830352   0.00021762631  0.00078340928
      5900   1.4076048      5.8941588      6.9997569      0.0051902121   7.2232631      62.244         62.244         62.244        -0.00093181434  0.0096405899   0.0068618607 
      6000   1.4322812      5.8903503      7.0153305      0.00029722379  7.0281298      62.244         62.244         62.244         0.0019139164  -0.00073870179 -0.00028354325
Loop time of 1.21399 on 1 procs for 1000 steps with 5600 atoms

Performance: 355850.342 tau/day, 823.728 timesteps/s, 4.613 Matom-step/s
99.6% CPU use with 1 MPI tasks x 1 OpenMP threads

MPI task timing breakdown:
Section |  min time  |  avg time  |  max time  |%varavg| %total
---------------------------------------------------------------
Pair    | 0.12141    | 0.12141    | 0.12141    |   0.0 | 10.00
Bond    | 0.038739   | 0.038739   | 0.038739   |   0.0 |  3.19
Neigh   | 0.39335    | 0.39335    | 0.39335    |   0.0 | 32.40
Comm    | 0.023806   | 0.023806   | 0.023806   |   0.0 |  1.96
Output  | 0.00074295 | 0.00074295 | 0.00074295 |   0.0 |  0.06
Modify  | 0.61212    | 0.61212    | 0.61212    |   0.0 | 50.42
Other   |            | 0.02383    |            |       |  1.96

Nlocal:           5600 ave        5600 max        5600 min
Histogram: 1 0 0 0 0 0 0 0 0 0
Nghost:           1347 ave        1347 max        1347 min
Histogram: 1 0 0 0 0 0 0 0 0 0
Neighs:           5399 ave        5399 max        5399 min
Histogram: 1 0 0 0 0 0 0 0 0 0

Total # of neighbors = 5399
Ave neighs/atom = 0.96410714
Ave special neighs/atom = 0.57142857
Neighbor list builds = 153
Dangerous builds = 0
unfix	1

fix	1 rods	rigid/nvt molecule temp 1.4 1.4 1.0
  800 rigid bodies with 4000 atoms
print 	"rigid/nvt"
rigid/nvt
run	1000
Generated 0 of 1 mixed pair_coeff terms from geometric mixing rule
Per MPI rank memory allocation (min/avg/max) = 8.018 | 8.018 | 8.018 Mbytes
   Step          Temp          PotEng         TotEng         Press         Enthalpy          Lx             Ly             Lz            Pxx            Pyy            Pzz      
      6000   1.4322812      5.8903503      7.0153305      0.012984296    7.5744734      62.244         62.244         62.244         0.058323772    0.007366828   -0.026737713  
      6100   1.4199781      5.8764024      6.9917192      0.0054080227   7.2246049      62.244         62.244         62.244         0.0092282159   0.0019631398   0.0050327123 
      6200   1.3976803      5.8924474      6.9902504      0.00044474719  7.0094026      62.244         62.244         62.244        -0.0022979183  -0.0004943354   0.0041264952 
      6300   1.4076912      5.8847607      6.9904268      0.0066261457   7.2757686      62.244         62.244         62.244         0.0057923777   0.0091772934   0.0049087658 
      6400   1.3749242      5.8816641      6.9615934      0.0075045379   7.2847615      62.244         62.244         62.244         0.012318395    0.003979389    0.0062158299 
      6500   1.3467602      5.888001       6.945809      -6.1011018e-05  6.9431817      62.244         62.244         62.244         0.0031945051  -0.0013048764  -0.0020726618 
      6600   1.3638321      5.8744775      6.9456945      0.005780579    7.1946237      62.244         62.244         62.244         0.0060765968   0.0058486743   0.0054164658 
      6700   1.3933343      5.8833797      6.9777691      0.0026007197   7.089764       62.244         62.244         62.244         0.0029828101   0.0019631585   0.0028561905 
      6800   1.4025439      5.901019       7.0026421      0.0033759718   7.1480216      62.244         62.244         62.244         0.0059683617   0.0016890885   0.002470465  
      6900   1.4165405      5.8901618      7.0027785      0.0048537306   7.2117948      62.244         62.244         62.244         0.0031937581   0.0089194691   0.0024479647 
      7000   1.4256345      5.8979889      7.0177485      0.0076603683   7.347627       62.244         62.244         62.244         0.0064499957   0.0096400261   0.0068910831 
Loop time of 1.16587 on 1 procs for 1000 steps with 5600 atoms

Performance: 370540.281 tau/day, 857.732 timesteps/s, 4.803 Matom-step/s
99.7% CPU use with 1 MPI tasks x 1 OpenMP threads

MPI task timing breakdown:
Section |  min time  |  avg time  |  max time  |%varavg| %total
---------------------------------------------------------------
Pair    | 0.11675    | 0.11675    | 0.11675    |   0.0 | 10.01
Bond    | 0.03628    | 0.03628    | 0.03628    |   0.0 |  3.11
Neigh   | 0.36879    | 0.36879    | 0.36879    |   0.0 | 31.63
Comm    | 0.022201   | 0.022201   | 0.022201   |   0.0 |  1.90
Output  | 0.00070791 | 0.00070791 | 0.00070791 |   0.0 |  0.06
Modify  | 0.59859    | 0.59859    | 0.59859    |   0.0 | 51.34
Other   |            | 0.02255    |            |       |  1.93

Nlocal:           5600 ave        5600 max        5600 min
Histogram: 1 0 0 0 0 0 0 0 0 0
Nghost:           1284 ave        1284 max        1284 min
Histogram: 1 0 0 0 0 0 0 0 0 0
Neighs:           5691 ave        5691 max        5691 min
Histogram: 1 0 0 0 0 0 0 0 0 0

Total # of neighbors = 5691
Ave neighs/atom = 1.01625
Ave special neighs/atom = 0.57142857
Neighbor list builds = 151
Dangerous builds = 0
unfix	1

compute	myTemp all temp

fix	1 rods	rigid/npt molecule temp 1.4 1.4 1.0 iso 0.05 0.05 1.0         dilate all
  800 rigid bodies with 4000 atoms
print 	"rigid/npt iso"
rigid/npt iso
fix_modify 1 temp myTemp

run	1000
Generated 0 of 1 mixed pair_coeff terms from geometric mixing rule
Per MPI rank memory allocation (min/avg/max) = 8.018 | 8.018 | 8.018 Mbytes
   Step          Temp          PotEng         TotEng         Press         Enthalpy          Lx             Ly             Lz            Pxx            Pyy            Pzz      
      7000   1.4256345      5.8979889      7.0177485      0.030670312    8.3385046      62.244         62.244         62.244         0.019152979    0.028037341    0.044820616  
      7100   1.4830481      5.8740667      7.0389215      0.021216954    7.7436467      57.083193      57.083193      57.083193      0.015785563    0.020078182    0.027787115  
      7200   1.5225973      5.8364439      7.0323626      0.015560962    7.3866118      50.329217      50.329217      50.329217      0.017379604    0.02205435     0.0072489313 
      7300   1.5589134      5.7874972      7.0119402      0.020613279    7.3515942      45.188285      45.188285      45.188285      0.019963793    0.02165546     0.020220585  
      7400   1.5629259      5.7523794      6.9799739      0.035363756    7.4299227      41.456971      41.456971      41.456971      0.030810521    0.041559103    0.033721646  
      7500   1.5735285      5.706087       6.9420093      0.033186427    7.2889675      38.830074      38.830074      38.830074      0.030605548    0.018770943    0.050182791  
      7600   1.5546074      5.6815832      6.902644       0.027297758    7.1446412      36.752801      36.752801      36.752801      0.027154479    0.030653039    0.024085757  
      7700   1.5396727      5.6293114      6.8386418      0.030528746    7.0744265      35.101973      35.101973      35.101973      0.022542269    0.025802901    0.043241069  
      7800   1.5249769      5.5826711      6.7804588      0.067321436    7.2458344      33.82824       33.82824       33.82824       0.063820368    0.072156874    0.065987065  
      7900   1.5017937      5.5660576      6.7456361      0.04770857     7.0497596      32.926623      32.926623      32.926623      0.035259576    0.06869573     0.039170404  
      8000   1.5105319      5.5459012      6.7323431      0.053301062    7.0487429      32.153588      32.153588      32.153588      0.076450314    0.07417732     0.0092755526 
Loop time of 2.49405 on 1 procs for 1000 steps with 5600 atoms

Performance: 173212.568 tau/day, 400.955 timesteps/s, 2.245 Matom-step/s
99.7% CPU use with 1 MPI tasks x 1 OpenMP threads

MPI task timing breakdown:
Section |  min time  |  avg time  |  max time  |%varavg| %total
---------------------------------------------------------------
Pair    | 0.29712    | 0.29712    | 0.29712    |   0.0 | 11.91
Bond    | 0.044611   | 0.044611   | 0.044611   |   0.0 |  1.79
Neigh   | 1.2735     | 1.2735     | 1.2735     |   0.0 | 51.06
Comm    | 0.048469   | 0.048469   | 0.048469   |   0.0 |  1.94
Output  | 0.0007418  | 0.0007418  | 0.0007418  |   0.0 |  0.03
Modify  | 0.7991     | 0.7991     | 0.7991     |   0.0 | 32.04
Other   |            | 0.03048    |            |       |  1.22

Nlocal:           5600 ave        5600 max        5600 min
Histogram: 1 0 0 0 0 0 0 0 0 0
Nghost:           2993 ave        2993 max        2993 min
Histogram: 1 0 0 0 0 0 0 0 0 0
Neighs:          25312 ave       25312 max       25312 min
Histogram: 1 0 0 0 0 0 0 0 0 0

Total # of neighbors = 25312
Ave neighs/atom = 4.52
Ave special neighs/atom = 0.57142857
Neighbor list builds = 335
Dangerous builds = 0
unfix	1

fix	1 rods	rigid/npt molecule temp 1.4 1.4 1.0 x 0.05 0.05 1.0 dilate all
  800 rigid bodies with 4000 atoms
print 	"rigid/npt x"
rigid/npt x
run	1000
Generated 0 of 1 mixed pair_coeff terms from geometric mixing rule
Per MPI rank memory allocation (min/avg/max) = 8.033 | 8.033 | 8.033 Mbytes
   Step          Temp          PotEng         TotEng         Press         Enthalpy          Lx             Ly             Lz            Pxx            Pyy            Pzz      
      8000   1.5105319      5.5459012      6.7323431     -0.15611622     5.8056235      32.153588      32.153588      32.153588     -0.25823552     0.036861264   -0.24697441   
      8100   1.4816536      5.5214096      6.6851691      0.051659716    6.9889314      31.85012       32.153588      32.153588      0.042525917    0.079045459    0.033407772  
      8200   1.4364335      5.5026881      6.6309297      0.030961663    6.8100555      31.337401      32.153588      32.153588      0.062969827    0.0077436471   0.022171514  
      8300   1.4159126      5.504273       6.6163965      0.050231597    6.9027629      30.879771      32.153588      32.153588      0.047512875    0.071477224    0.031704693  
      8400   1.4479331      5.4732237      6.6104975      0.037171033    6.8195306      30.460678      32.153588      32.153588      0.016306171    0.072770628    0.022436301  
      8500   1.4126922      5.4616331      6.5712271      0.069137703    6.9521816      29.846079      32.153588      32.153588      0.075972518    0.063305384    0.068135208  
      8600   1.4129562      5.4397649      6.5495663      0.068287674    6.9190398      29.306917      32.153588      32.153588      0.077820831    0.076960087    0.050082105  
      8700   1.4199417      5.408767       6.5240551      0.046952367    6.7741118      28.847632      32.153588      32.153588      0.078496327    0.013710756    0.048650018  
      8800   1.415092       5.4082456      6.5197246      0.017068201    6.6091852      28.39051       32.153588      32.153588      0.01803734     0.0086202553   0.024547008  
      8900   1.4080943      5.3806524      6.486635       0.006282149    6.5189723      27.882074      32.153588      32.153588      0.023331732    0.01130818    -0.015793465  
      9000   1.4188356      5.3687142      6.4831335      0.078333785    6.8770321      27.237322      32.153588      32.153588      0.092873218    0.033643462    0.10848468   
Loop time of 2.35076 on 1 procs for 1000 steps with 5600 atoms

Performance: 183770.370 tau/day, 425.394 timesteps/s, 2.382 Matom-step/s
99.8% CPU use with 1 MPI tasks x 1 OpenMP threads

MPI task timing breakdown:
Section |  min time  |  avg time  |  max time  |%varavg| %total
---------------------------------------------------------------
Pair    | 0.45082    | 0.45082    | 0.45082    |   0.0 | 19.18
Bond    | 0.045157   | 0.045157   | 0.045157   |   0.0 |  1.92
Neigh   | 0.98655    | 0.98655    | 0.98655    |   0.0 | 41.97
Comm    | 0.039968   | 0.039968   | 0.039968   |   0.0 |  1.70
Output  | 0.00072296 | 0.00072296 | 0.00072296 |   0.0 |  0.03
Modify  | 0.80394    | 0.80394    | 0.80394    |   0.0 | 34.20
Other   |            | 0.0236     |            |       |  1.00

Nlocal:           5600 ave        5600 max        5600 min
Histogram: 1 0 0 0 0 0 0 0 0 0
Nghost:           3422 ave        3422 max        3422 min
Histogram: 1 0 0 0 0 0 0 0 0 0
Neighs:          31084 ave       31084 max       31084 min
Histogram: 1 0 0 0 0 0 0 0 0 0

Total # of neighbors = 31084
Ave neighs/atom = 5.5507143
Ave special neighs/atom = 0.57142857
Neighbor list builds = 167
Dangerous builds = 0
unfix	1

fix	1 rods	rigid/nph molecule iso 0.05 0.05 1.0 dilate all
  800 rigid bodies with 4000 atoms
print 	"rigid/nph iso"
rigid/nph iso
run	1000
Generated 0 of 1 mixed pair_coeff terms from geometric mixing rule
Per MPI rank memory allocation (min/avg/max) = 8.036 | 8.036 | 8.036 Mbytes
   Step          Temp          PotEng         TotEng         Press         Enthalpy          Lx             Ly             Lz            Pxx            Pyy            Pzz      
      9000   1.4188356      5.3687142      6.4831335      0.066940268    6.8197402      27.237322      32.153588      32.153588      0.020750172    0.14461869     0.035451941  
      9100   1.418441       5.3523211      6.4664305      0.016522511    6.5489637      27.17712       32.08252       32.08252       0.01137531     0.0028933886   0.035298833  
      9200   1.4433401      5.3458252      6.4794915      0.038961106    6.6708176      27.023003      31.900585      31.900585      0.012667867    0.094480325    0.0097351253 
      9300   1.4806575      5.309105       6.4720822      0.11806636     7.0379478      26.804952      31.643176      31.643176      0.063001935    0.11667303     0.17452413   
      9400   1.4835179      5.3103383      6.4755622      0.098990545    6.9362503      26.543432      31.334452      31.334452      0.13023767     0.084360197    0.08237377   
      9500   1.4855723      5.2906327      6.4574702     -0.0012789282   6.4516456      26.352845      31.109465      31.109465      0.053813822   -0.016098782   -0.041551825  
      9600   1.4959395      5.2553176      6.4302979      0.036958035    6.5952607      26.176506      30.901298      30.901298      0.077457004   -0.035314705    0.068731807  
      9700   1.4470266      5.289874       6.4264359      0.065648447    6.7177609      26.125849      30.841497      30.841497      0.064764383    0.041383889    0.090797069  
      9800   1.4525327      5.2808561      6.4217428      0.0076421133   6.4554682      26.077575      30.78451       30.78451      -0.01978363     0.013568065    0.029141905  
      9900   1.4603761      5.269343       6.4163902      0.079488558    6.7651749      26.027767      30.725712      30.725712      0.06210239     0.062690336    0.11367295   
     10000   1.4437445      5.2626116      6.3965955      0.0024175103   6.4072252      26.045744      30.746933      30.746933      0.0020903338   0.023283622   -0.018121425  
Loop time of 2.42718 on 1 procs for 1000 steps with 5600 atoms

Performance: 177984.690 tau/day, 412.002 timesteps/s, 2.307 Matom-step/s
99.8% CPU use with 1 MPI tasks x 1 OpenMP threads

MPI task timing breakdown:
Section |  min time  |  avg time  |  max time  |%varavg| %total
---------------------------------------------------------------
Pair    | 0.52411    | 0.52411    | 0.52411    |   0.0 | 21.59
Bond    | 0.04594    | 0.04594    | 0.04594    |   0.0 |  1.89
Neigh   | 1.0079     | 1.0079     | 1.0079     |   0.0 | 41.53
Comm    | 0.040182   | 0.040182   | 0.040182   |   0.0 |  1.66
Output  | 0.00070663 | 0.00070663 | 0.00070663 |   0.0 |  0.03
Modify  | 0.78582    | 0.78582    | 0.78582    |   0.0 | 32.38
Other   |            | 0.02253    |            |       |  0.93

Nlocal:           5600 ave        5600 max        5600 min
Histogram: 1 0 0 0 0 0 0 0 0 0
Nghost:           3638 ave        3638 max        3638 min
Histogram: 1 0 0 0 0 0 0 0 0 0
Neighs:          35778 ave       35778 max       35778 min
Histogram: 1 0 0 0 0 0 0 0 0 0

Total # of neighbors = 35778
Ave neighs/atom = 6.3889286
Ave special neighs/atom = 0.57142857
Neighbor list builds = 161
Dangerous builds = 0
unfix	1

fix	1 rods	rigid/nph molecule x 0.05 0.05 1.0 y 0.05 0.05 1.0         couple xy dilate all
  800 rigid bodies with 4000 atoms
print 	"rigid/nph xy couple"
rigid/nph xy couple
run	1000
Generated 0 of 1 mixed pair_coeff terms from geometric mixing rule
Per MPI rank memory allocation (min/avg/max) = 8.041 | 8.041 | 8.041 Mbytes
   Step          Temp          PotEng         TotEng         Press         Enthalpy          Lx             Ly             Lz            Pxx            Pyy            Pzz      
     10000   1.4437445      5.2626116      6.3965955      0.043852305    6.5894123      26.045744      30.746933      30.746933     -0.10594451    -0.016019605    0.25352103   
     10100   1.4544517      5.2536075      6.3960014      0.040252547    6.5723133      25.995896      30.688087      30.746933      0.036481947    0.058195014    0.026080679  
     10200   1.4465796      5.2533056      6.3895164      0.043103918    6.5797343      26.093233      30.802994      30.746933      0.047509548    0.023387048    0.058415158  
     10300   1.4703558      5.2311222      6.3860079      0.02952279     6.5179005      26.253791      30.992532      30.746933      0.067825843   -1.1742127e-05  0.020754268  
     10400   1.4264151      5.2426153      6.362988       0.043320767    6.5561801      26.230542      30.965087      30.746933      0.036437179    0.069318063    0.02420706   
     10500   1.4718495      5.213542       6.3696009      0.028876649    6.4965877      26.047535      30.749047      30.746933      0.044470994    0.03304953     0.0091094235 
     10600   1.4550996      5.2087392      6.3516419      0.049130073    6.5647387      25.868744      30.537985      30.746933      0.056613289    0.028555571    0.062221359  
     10700   1.4755834      5.1912236      6.3502153      0.0027128909   6.3617831      25.648895      30.278455      30.746933      0.035708882    0.02165412    -0.04922433   
     10800   1.4801906      5.1863989      6.3490092      0.030220134    6.4763468      25.497097      30.099256      30.746933      0.035963119    0.021549561    0.033147721  
     10900   1.4318851      5.1785312      6.3032002      0.095502071    6.7019424      25.380506      29.961622      30.746933      0.1040397      0.10708089     0.075385625  
     11000   1.4500789      5.1660716      6.3050309      0.072030914    6.6026703      25.249123      29.806525      30.746933      0.073199983    0.0091150749   0.13377768   
Loop time of 2.55647 on 1 procs for 1000 steps with 5600 atoms

Performance: 168982.932 tau/day, 391.164 timesteps/s, 2.191 Matom-step/s
99.8% CPU use with 1 MPI tasks x 1 OpenMP threads

MPI task timing breakdown:
Section |  min time  |  avg time  |  max time  |%varavg| %total
---------------------------------------------------------------
Pair    | 0.5683     | 0.5683     | 0.5683     |   0.0 | 22.23
Bond    | 0.044877   | 0.044877   | 0.044877   |   0.0 |  1.76
Neigh   | 1.0732     | 1.0732     | 1.0732     |   0.0 | 41.98
Comm    | 0.041328   | 0.041328   | 0.041328   |   0.0 |  1.62
Output  | 0.00078717 | 0.00078717 | 0.00078717 |   0.0 |  0.03
Modify  | 0.80433    | 0.80433    | 0.80433    |   0.0 | 31.46
Other   |            | 0.02363    |            |       |  0.92

Nlocal:           5600 ave        5600 max        5600 min
Histogram: 1 0 0 0 0 0 0 0 0 0
Nghost:           3699 ave        3699 max        3699 min
Histogram: 1 0 0 0 0 0 0 0 0 0
Neighs:          39523 ave       39523 max       39523 min
Histogram: 1 0 0 0 0 0 0 0 0 0

Total # of neighbors = 39523
Ave neighs/atom = 7.0576786
Ave special neighs/atom = 0.57142857
Neighbor list builds = 163
Dangerous builds = 0

Total wall time: 0:00:17
