LAMMPS (7 Feb 2024 - Development - patch_7Feb2024_update1-306-gf3391199e7-modified)
  using 1 OpenMP thread(s) per MPI task
# 2d micelle simulation

dimension       2

neighbor        0.33 bin
neigh_modify    delay 5

atom_style      bond

# Soft potential push-off

read_data       data.micelle
Reading data file ...
  orthogonal box = (0 0 -0.1) to (35.85686 35.85686 0.1)
  2 by 2 by 1 MPI processor grid
  reading atoms ...
  1200 atoms
  scanning bonds ...
  1 = max bonds/atom
  reading bonds ...
  300 bonds
Finding 1-2 1-3 1-4 neighbors ...
  special bond factors lj:    0        0        0       
  special bond factors coul:  0        0        0       
     2 = max # of 1-2 neighbors
     1 = max # of 1-3 neighbors
     1 = max # of 1-4 neighbors
     2 = max # of special neighbors
  special bonds CPU = 0.000 seconds
  read_data CPU = 0.004 seconds
special_bonds   fene
Finding 1-2 1-3 1-4 neighbors ...
  special bond factors lj:    0        1        1       
  special bond factors coul:  0        1        1       
     2 = max # of 1-2 neighbors
     2 = max # of special neighbors
  special bonds CPU = 0.000 seconds

pair_style      soft 1.12246
pair_coeff      * * 0.0 1.12246

bond_style      harmonic
bond_coeff      1 50.0 0.75

velocity        all create 0.45 2349852

variable        prefactor equal ramp(1.0,20.0)

fix             1 all nve
fix             2 all temp/rescale 100 0.45 0.45 0.02 1.0
fix             3 all adapt 1 pair soft a * * v_prefactor
fix             4 all enforce2d

thermo          50
run             1000
Generated 0 of 6 mixed pair_coeff terms from geometric mixing rule
WARNING: Communication cutoff 1.45246 is shorter than a bond length based estimate of 1.455. This may lead to errors. (src/comm.cpp:730)
Neighbor list info ...
  update: every = 1 steps, delay = 5 steps, check = yes
  max neighbors/atom: 2000, page size: 100000
  master list distance cutoff = 1.45246
  ghost atom cutoff = 1.45246
  binsize = 0.72623, bins = 50 50 1
  1 neighbor lists, perpetual/occasional/extra = 1 0 0
  (1) pair soft, perpetual
      attributes: half, newton on
      pair build: half/bin/newton
      stencil: half/bin/2d
      bin: standard
WARNING: Communication cutoff 1.45246 is shorter than a bond length based estimate of 1.455. This may lead to errors. (src/comm.cpp:730)
Per MPI rank memory allocation (min/avg/max) = 4.126 | 4.126 | 4.127 Mbytes
   Step          Temp          E_pair         E_mol          TotEng         Press     
         0   0.45           0.40003481     2.2200223e-06  0.84966203     0.78952518   
        50   0.47411013     0.67721272     0.057404514    1.2083323      1.3375852    
       100   0.45           0.73046745     0.054836584    1.234929       2.3196516    
       150   0.67521742     0.72402001     0.043490075    1.4421648      2.8744416    
       200   0.45           0.78481891     0.076931503    1.3113754      3.0412388    
       250   0.66479018     0.69790602     0.081075564    1.4432178      3.6917024    
       300   0.45           0.76820218     0.066727591    1.2845548      3.7861054    
       350   0.67619136     0.625715       0.072722727    1.3740656      4.2861621    
       400   0.45           0.68527759     0.090724527    1.2256271      4.4725214    
       450   0.56702844     0.64402767     0.080555563    1.2911391      4.7402211    
       500   0.45           0.64883009     0.078376672    1.1768318      4.7919294    
       550   0.564664       0.58260368     0.080779475    1.2275766      4.9855705    
       600   0.45           0.58193041     0.088386617    1.119942       5.131481     
       650   0.52110993     0.5415273      0.097683746    1.1598867      5.2500294    
       700   0.45           0.50856787     0.088471208    1.0466641      5.2550165    
       750   0.51510855     0.47441291     0.089429375    1.0785216      5.375763     
       800   0.45           0.49926696     0.085958476    1.0348504      5.4665914    
       850   0.50688494     0.46614429     0.088962292    1.0615691      5.556932     
       900   0.45           0.47785593     0.10150857     1.0289895      5.7765975    
       950   0.49590559     0.46050477     0.096404887    1.052402       5.8649245    
      1000   0.45           0.47691182     0.08808163     1.0146185      6.0177568    
Loop time of 0.0430044 on 4 procs for 1000 steps with 1200 atoms

Performance: 10045485.178 tau/day, 23253.438 timesteps/s, 27.904 Matom-step/s
98.8% CPU use with 4 MPI tasks x 1 OpenMP threads

MPI task timing breakdown:
Section |  min time  |  avg time  |  max time  |%varavg| %total
---------------------------------------------------------------
Pair    | 0.01855    | 0.019447   | 0.019916   |   0.4 | 45.22
Bond    | 0.0011939  | 0.0012689  | 0.0013518  |   0.2 |  2.95
Neigh   | 0.0054396  | 0.0054535  | 0.0054635  |   0.0 | 12.68
Comm    | 0.0093296  | 0.0097958  | 0.010731   |   0.6 | 22.78
Output  | 0.00016417 | 0.00018578 | 0.00024995 |   0.0 |  0.43
Modify  | 0.0049758  | 0.0050749  | 0.005268   |   0.2 | 11.80
Other   |            | 0.001778   |            |       |  4.14

Nlocal:            300 ave         306 max         294 min
Histogram: 1 0 0 1 0 0 1 0 0 1
Nghost:            103 ave         110 max          98 min
Histogram: 2 0 0 0 0 0 1 0 0 1
Neighs:            805 ave         827 max         768 min
Histogram: 1 0 0 0 0 0 1 0 1 1

Total # of neighbors = 3220
Ave neighs/atom = 2.6833333
Ave special neighs/atom = 0.5
Neighbor list builds = 84
Dangerous builds = 0

unfix           3

# Main run

pair_style      lj/cut 2.5

# solvent/head - full-size and long-range

pair_coeff      1 1 1.0 1.0 2.5
pair_coeff      2 2 1.0 1.0 2.5
pair_coeff      1 2 1.0 1.0 2.5

# tail/tail - size-averaged and long-range

pair_coeff      3 3 1.0 0.75 2.5
pair_coeff      4 4 1.0 0.50 2.5
pair_coeff      3 4 1.0 0.67 2.5

# solvent/tail - full-size and repulsive

pair_coeff      1 3 1.0 1.0 1.12246
pair_coeff      1 4 1.0 1.0 1.12246

# head/tail - size-averaged and repulsive

pair_coeff      2 3 1.0 0.88 1.12246
pair_coeff      2 4 1.0 0.75 1.12246

thermo          50

#dump           1 all atom 2000 dump.micelle

#dump           2 all image 2000 image.*.jpg type type zoom 1.6
#dump_modify    2 pad 5 adiam 1 0.5 adiam 2 1.5 adiam 3 1.0 adiam 4 0.75

#dump           3 all movie 2000 movie.mpg type type zoom 1.6
#dump_modify    3 pad 5 adiam 1 0.5 adiam 2 1.5 adiam 3 1.0 adiam 4 0.75

reset_timestep  0
run             1000
Generated 0 of 6 mixed pair_coeff terms from geometric mixing rule
Neighbor list info ...
  update: every = 1 steps, delay = 5 steps, check = yes
  max neighbors/atom: 2000, page size: 100000
  master list distance cutoff = 2.83
  ghost atom cutoff = 2.83
  binsize = 1.415, bins = 26 26 1
  1 neighbor lists, perpetual/occasional/extra = 1 0 0
  (1) pair lj/cut, perpetual
      attributes: half, newton on
      pair build: half/bin/newton
      stencil: half/bin/2d
      bin: standard
Per MPI rank memory allocation (min/avg/max) = 4.125 | 4.125 | 4.125 Mbytes
   Step          Temp          E_pair         E_mol          TotEng         Press     
         0   0.45          -1.7056163      0.08808163    -1.1679097      3.9431686    
        50   0.59734982    -1.8103783      0.076066922   -1.1374593      3.2770557    
       100   0.45          -1.8347112      0.093132329   -1.2919539      3.024661     
       150   0.51924311    -1.8943977      0.076004124   -1.2995832      2.5570373    
       200   0.45          -1.8918673      0.082422107   -1.3598201      2.5629655    
       250   0.50281134    -1.920406       0.074011331   -1.3440023      2.3518682    
       300   0.45          -1.9351047      0.075337265   -1.4101424      2.3249947    
       350   0.47650026    -1.9313687      0.072115117   -1.3831504      2.1987532    
       400   0.45          -1.9554318      0.08160394    -1.4242028      2.0787066    
       450   0.47220237    -1.9468502      0.065625625   -1.4094157      2.0984288    
       500   0.46846732    -1.9444333      0.076696282   -1.3996601      2.0528682    
       550   0.47683129    -1.958676       0.070589715   -1.4116523      2.0856023    
       600   0.46851246    -1.9338267      0.070605474   -1.3950992      2.2640497    
       650   0.46874145    -1.9462493      0.069134673   -1.4087638      2.1070263    
       700   0.46437384    -1.9309953      0.071977538   -1.3950309      2.2256921    
       750   0.47326257    -1.9484258      0.075435782   -1.4001218      2.0880238    
       800   0.45          -1.9646002      0.064159564   -1.4508156      2.0612711    
       850   0.46748245    -1.9705585      0.060385282   -1.4430803      1.9472928    
       900   0.46909475    -1.953722       0.062469986   -1.4225482      2.0223017    
       950   0.45631666    -1.9387749      0.067535547   -1.415303       2.0638464    
      1000   0.45          -1.9727662      0.058608374   -1.4645328      1.9982544    
Loop time of 0.0580559 on 4 procs for 1000 steps with 1200 atoms

Performance: 7441102.030 tau/day, 17224.773 timesteps/s, 20.670 Matom-step/s
99.5% CPU use with 4 MPI tasks x 1 OpenMP threads

MPI task timing breakdown:
Section |  min time  |  avg time  |  max time  |%varavg| %total
---------------------------------------------------------------
Pair    | 0.025537   | 0.026849   | 0.0293     |   0.9 | 46.25
Bond    | 0.0012241  | 0.0013287  | 0.0015123  |   0.3 |  2.29
Neigh   | 0.0093194  | 0.0093648  | 0.0093978  |   0.0 | 16.13
Comm    | 0.011992   | 0.014606   | 0.015998   |   1.3 | 25.16
Output  | 0.00018318 | 0.0001963  | 0.0002352  |   0.0 |  0.34
Modify  | 0.003441   | 0.0035887  | 0.0037522  |   0.2 |  6.18
Other   |            | 0.002122   |            |       |  3.66

Nlocal:            300 ave         305 max         294 min
Histogram: 1 0 0 1 0 0 0 0 1 1
Nghost:         222.25 ave         231 max         215 min
Histogram: 1 0 0 1 0 1 0 0 0 1
Neighs:           2195 ave        2233 max        2150 min
Histogram: 1 0 0 0 0 2 0 0 0 1

Total # of neighbors = 8780
Ave neighs/atom = 7.3166667
Ave special neighs/atom = 0.5
Neighbor list builds = 77
Dangerous builds = 0
Total wall time: 0:00:00
